WARNING: for repeatability, setting FPU to use double precision
============================[ Problem Statistics ]=============================
|                                                                             |
|  Number of variables:          4351                                         |
|  Number of clauses:           57841                                         |
|  Parse time:                   0.02 s                                       |
|  Eliminated clauses:           0.00 Mb                                      |
|  Simplification time:          0.02 s                                       |
|                                                                             |
============================[ Search Statistics ]==============================
| Conflicts |          ORIGINAL         |          LEARNT          | Progress |
|           |    Vars  Clauses Literals |    Limit  Clauses Lit/Cl |          |
===============================================================================
===============================================================================
restarts              : 1
conflicts             : 13             (426 /sec)
decisions             : 154            (0.00 % random) (5045 /sec)
propagations          : 5981           (195931 /sec)
conflict literals     : 507            (0.59 % deleted)
Memory used           : 25.00 MB
CPU time              : 0.030526 s

SATISFIABLE
